Al1                                     
   1.00000000000000     
     3.0530901566390001    0.2699226443355274   -1.0120169812979218
     0.0235337238359624    3.0741682638885766    0.4511207640783803
    -0.7651469896117323    0.0233051455777529    3.0468969958075793
   Al
     1
Direct
  0.9237198968554168  0.4187233344373098  0.9338572828362146
 
  0.00000000E+00  0.00000000E+00  0.00000000E+00
