ALGO = Veryfast
EDIFF = 1e-05
EDIFFG = -0.01
ENCUT = 400
GGA = Pe
IBRION = 2
ISIF = 5
ISMEAR = 1
ISTART = 0
KPAR = 2
KSPACING = 0.5
LORBIT = 10
LPLANE = False
LREAL = False
MAGMOM = 1*-3.0
NCORE = 4
NELM = 240
NSIM = 1
NSW = 200
PREC = Accurate
SIGMA = 0.2
SYSTEM = Isif_5_isif_7_pyxtal_struct_0
