Al1
1.0
   2.3649376910000002    0.1431840740000000   -0.8301033050000000
   0.0000000000000000    2.7587381139999998    0.5541286190000000
   0.0000000000000000    0.0000000000000000    3.9961206329999999
Al
1
direct
   0.9237198968554136    0.4187233344373122    0.9338572828362149 Al
