Al1                                     
   1.00000000000000     
     2.9527070116983101    0.2598216116701415   -1.1488980144270673
     0.0210590352909915    3.0506675405125372    0.5392167671601342
    -0.8228135293515246    0.0825178255507372    3.2440982591728122
   Al
     1
Direct
  0.9237198968554168  0.4187233344373098  0.9338572828362146
 
  0.00000000E+00  0.00000000E+00  0.00000000E+00
