Poscar file generated with pyiron       
   1.00000000000000     
    10.5539999999999985    0.0000000000000000    0.0000000000000000
     0.0000000000000000   10.5539999999999985    0.0000000000000000
     0.0000000000000000    0.0000000000000000   10.5539999999999985
   In   Ni
     1   107
Direct
  0.0000000000000000 -0.0000000000000000  0.0000000000000000
  0.0000000000000000  0.1724928526119784  0.1724928526119784
  0.1724928526119784 -0.0000000000000000  0.1724928526119784
  0.1724928526119784  0.1724928526119784  0.0000000000000000
  0.0000000000000000 -0.0000000000000000  0.3332833754430793
  0.0000000000000000  0.1668104815005530  0.5000000000000000
  0.1668104815005530 -0.0000000000000000  0.5000000000000000
  0.1675137610731633  0.1675137610731633  0.3345442629344074
  0.0000000000000000 -0.0000000000000000  0.6667166245569209
  0.0000000000000000  0.1724928526119784  0.8275071473880214
  0.1724928526119784 -0.0000000000000000  0.8275071473880214
  0.1675137610731633  0.1675137610731633  0.6654557370655927
  0.0000000000000000  0.3332833754430793  0.0000000000000000
  0.0000000000000000  0.5000000000000000  0.1668104815005530
  0.1675137610731633  0.3345442629344074  0.1675137610731633
  0.1668104815005530  0.5000000000000000  0.0000000000000000
  0.0000000000000000  0.3354833538685201  0.3354833538685201
  0.0000000000000000  0.5000000000000000  0.5000000000000000
  0.1673240668540927  0.3337294446250558  0.5000000000000000
  0.1673240668540927  0.5000000000000000  0.3337294446250558
  0.0000000000000000  0.3354833538685201  0.6645166461314798
  0.0000000000000000  0.5000000000000000  0.8331895184994470
  0.1675137610731633  0.3345442629344074  0.8324862389268366
  0.1673240668540927  0.5000000000000000  0.6662705553749442
  0.0000000000000000  0.6667166245569209  0.0000000000000000
  0.0000000000000000  0.8275071473880214  0.1724928526119784
  0.1675137610731633  0.6654557370655927  0.1675137610731633
  0.1724928526119784  0.8275071473880214  0.0000000000000000
  0.0000000000000000  0.6645166461314798  0.3354833538685201
  0.0000000000000000  0.8331895184994470  0.5000000000000000
  0.1673240668540927  0.6662705553749442  0.5000000000000000
  0.1675137610731633  0.8324862389268366  0.3345442629344074
  0.0000000000000000  0.6645166461314798  0.6645166461314798
  0.0000000000000000  0.8275071473880214  0.8275071473880214
  0.1675137610731633  0.6654557370655927  0.8324862389268366
  0.1675137610731633  0.8324862389268366  0.6654557370655927
  0.3332833754430793 -0.0000000000000000  0.0000000000000000
  0.3345442629344074  0.1675137610731633  0.1675137610731633
  0.5000000000000000 -0.0000000000000000  0.1668104815005530
  0.5000000000000000  0.1668104815005530  0.0000000000000000
  0.3354833538685201 -0.0000000000000000  0.3354833538685201
  0.3337294446250558  0.1673240668540927  0.5000000000000000
  0.5000000000000000 -0.0000000000000000  0.5000000000000000
  0.5000000000000000  0.1673240668540927  0.3337294446250558
  0.3354833538685201 -0.0000000000000000  0.6645166461314798
  0.3345442629344074  0.1675137610731633  0.8324862389268366
  0.5000000000000000 -0.0000000000000000  0.8331895184994470
  0.5000000000000000  0.1673240668540927  0.6662705553749442
  0.3354833538685201  0.3354833538685201  0.0000000000000000
  0.3337294446250558  0.5000000000000000  0.1673240668540927
  0.5000000000000000  0.3337294446250558  0.1673240668540927
  0.5000000000000000  0.5000000000000000  0.0000000000000000
  0.3337088333708704  0.3337088333708704  0.3337088333708704
  0.3337056420330433  0.5000000000000000  0.5000000000000000
  0.5000000000000000  0.3337056420330433  0.5000000000000000
  0.5000000000000000  0.5000000000000000  0.3337056420330433
  0.3337088333708704  0.3337088333708704  0.6662911666291296
  0.3337294446250558  0.5000000000000000  0.8326759331459072
  0.5000000000000000  0.3337294446250558  0.8326759331459072
  0.5000000000000000  0.5000000000000000  0.6662943579669566
  0.3354833538685201  0.6645166461314798  0.0000000000000000
  0.3345442629344074  0.8324862389268366  0.1675137610731633
  0.5000000000000000  0.6662705553749442  0.1673240668540927
  0.5000000000000000  0.8331895184994470  0.0000000000000000
  0.3337088333708704  0.6662911666291296  0.3337088333708704
  0.3337294446250558  0.8326759331459072  0.5000000000000000
  0.5000000000000000  0.6662943579669566  0.5000000000000000
  0.5000000000000000  0.8326759331459072  0.3337294446250558
  0.3337088333708704  0.6662911666291296  0.6662911666291296
  0.3345442629344074  0.8324862389268366  0.8324862389268366
  0.5000000000000000  0.6662705553749442  0.8326759331459072
  0.5000000000000000  0.8326759331459072  0.6662705553749442
  0.6667166245569209 -0.0000000000000000  0.0000000000000000
  0.6654557370655927  0.1675137610731633  0.1675137610731633
  0.8275071473880214 -0.0000000000000000  0.1724928526119784
  0.8275071473880214  0.1724928526119784  0.0000000000000000
  0.6645166461314798 -0.0000000000000000  0.3354833538685201
  0.6662705553749442  0.1673240668540927  0.5000000000000000
  0.8331895184994470 -0.0000000000000000  0.5000000000000000
  0.8324862389268366  0.1675137610731633  0.3345442629344074
  0.6645166461314798 -0.0000000000000000  0.6645166461314798
  0.6654557370655927  0.1675137610731633  0.8324862389268366
  0.8275071473880214 -0.0000000000000000  0.8275071473880214
  0.8324862389268366  0.1675137610731633  0.6654557370655927
  0.6645166461314798  0.3354833538685201  0.0000000000000000
  0.6662705553749442  0.5000000000000000  0.1673240668540927
  0.8324862389268366  0.3345442629344074  0.1675137610731633
  0.8331895184994470  0.5000000000000000  0.0000000000000000
  0.6662911666291296  0.3337088333708704  0.3337088333708704
  0.6662943579669566  0.5000000000000000  0.5000000000000000
  0.8326759331459072  0.3337294446250558  0.5000000000000000
  0.8326759331459072  0.5000000000000000  0.3337294446250558
  0.6662911666291296  0.3337088333708704  0.6662911666291296
  0.6662705553749442  0.5000000000000000  0.8326759331459072
  0.8324862389268366  0.3345442629344074  0.8324862389268366
  0.8326759331459072  0.5000000000000000  0.6662705553749442
  0.6645166461314798  0.6645166461314798  0.0000000000000000
  0.6654557370655927  0.8324862389268366  0.1675137610731633
  0.8324862389268366  0.6654557370655927  0.1675137610731633
  0.8275071473880214  0.8275071473880214  0.0000000000000000
  0.6662911666291296  0.6662911666291296  0.3337088333708704
  0.6662705553749442  0.8326759331459072  0.5000000000000000
  0.8326759331459072  0.6662705553749442  0.5000000000000000
  0.8324862389268366  0.8324862389268366  0.3345442629344074
  0.6662911666291296  0.6662911666291296  0.6662911666291296
  0.6654557370655927  0.8324862389268366  0.8324862389268366
  0.8324862389268366  0.6654557370655927  0.8324862389268366
  0.8324862389268366  0.8324862389268366  0.6654557370655927
 
  0.00000000E+00  0.00000000E+00  0.00000000E+00
  0.00000000E+00  0.00000000E+00  0.00000000E+00
  0.00000000E+00  0.00000000E+00  0.00000000E+00
  0.00000000E+00  0.00000000E+00  0.00000000E+00
  0.00000000E+00  0.00000000E+00  0.00000000E+00
  0.00000000E+00  0.00000000E+00  0.00000000E+00
  0.00000000E+00  0.00000000E+00  0.00000000E+00
  0.00000000E+00  0.00000000E+00  0.00000000E+00
  0.00000000E+00  0.00000000E+00  0.00000000E+00
  0.00000000E+00  0.00000000E+00  0.00000000E+00
  0.00000000E+00  0.00000000E+00  0.00000000E+00
  0.00000000E+00  0.00000000E+00  0.00000000E+00
  0.00000000E+00  0.00000000E+00  0.00000000E+00
  0.00000000E+00  0.00000000E+00  0.00000000E+00
  0.00000000E+00  0.00000000E+00  0.00000000E+00
  0.00000000E+00  0.00000000E+00  0.00000000E+00
  0.00000000E+00  0.00000000E+00  0.00000000E+00
  0.00000000E+00  0.00000000E+00  0.00000000E+00
  0.00000000E+00  0.00000000E+00  0.00000000E+00
  0.00000000E+00  0.00000000E+00  0.00000000E+00
  0.00000000E+00  0.00000000E+00  0.00000000E+00
  0.00000000E+00  0.00000000E+00  0.00000000E+00
  0.00000000E+00  0.00000000E+00  0.00000000E+00
  0.00000000E+00  0.00000000E+00  0.00000000E+00
  0.00000000E+00  0.00000000E+00  0.00000000E+00
  0.00000000E+00  0.00000000E+00  0.00000000E+00
  0.00000000E+00  0.00000000E+00  0.00000000E+00
  0.00000000E+00  0.00000000E+00  0.00000000E+00
  0.00000000E+00  0.00000000E+00  0.00000000E+00
  0.00000000E+00  0.00000000E+00  0.00000000E+00
  0.00000000E+00  0.00000000E+00  0.00000000E+00
  0.00000000E+00  0.00000000E+00  0.00000000E+00
  0.00000000E+00  0.00000000E+00  0.00000000E+00
  0.00000000E+00  0.00000000E+00  0.00000000E+00
  0.00000000E+00  0.00000000E+00  0.00000000E+00
  0.00000000E+00  0.00000000E+00  0.00000000E+00
  0.00000000E+00  0.00000000E+00  0.00000000E+00
  0.00000000E+00  0.00000000E+00  0.00000000E+00
  0.00000000E+00  0.00000000E+00  0.00000000E+00
  0.00000000E+00  0.00000000E+00  0.00000000E+00
  0.00000000E+00  0.00000000E+00  0.00000000E+00
  0.00000000E+00  0.00000000E+00  0.00000000E+00
  0.00000000E+00  0.00000000E+00  0.00000000E+00
  0.00000000E+00  0.00000000E+00  0.00000000E+00
  0.00000000E+00  0.00000000E+00  0.00000000E+00
  0.00000000E+00  0.00000000E+00  0.00000000E+00
  0.00000000E+00  0.00000000E+00  0.00000000E+00
  0.00000000E+00  0.00000000E+00  0.00000000E+00
  0.00000000E+00  0.00000000E+00  0.00000000E+00
  0.00000000E+00  0.00000000E+00  0.00000000E+00
  0.00000000E+00  0.00000000E+00  0.00000000E+00
  0.00000000E+00  0.00000000E+00  0.00000000E+00
  0.00000000E+00  0.00000000E+00  0.00000000E+00
  0.00000000E+00  0.00000000E+00  0.00000000E+00
  0.00000000E+00  0.00000000E+00  0.00000000E+00
  0.00000000E+00  0.00000000E+00  0.00000000E+00
  0.00000000E+00  0.00000000E+00  0.00000000E+00
  0.00000000E+00  0.00000000E+00  0.00000000E+00
  0.00000000E+00  0.00000000E+00  0.00000000E+00
  0.00000000E+00  0.00000000E+00  0.00000000E+00
  0.00000000E+00  0.00000000E+00  0.00000000E+00
  0.00000000E+00  0.00000000E+00  0.00000000E+00
  0.00000000E+00  0.00000000E+00  0.00000000E+00
  0.00000000E+00  0.00000000E+00  0.00000000E+00
  0.00000000E+00  0.00000000E+00  0.00000000E+00
  0.00000000E+00  0.00000000E+00  0.00000000E+00
  0.00000000E+00  0.00000000E+00  0.00000000E+00
  0.00000000E+00  0.00000000E+00  0.00000000E+00
  0.00000000E+00  0.00000000E+00  0.00000000E+00
  0.00000000E+00  0.00000000E+00  0.00000000E+00
  0.00000000E+00  0.00000000E+00  0.00000000E+00
  0.00000000E+00  0.00000000E+00  0.00000000E+00
  0.00000000E+00  0.00000000E+00  0.00000000E+00
  0.00000000E+00  0.00000000E+00  0.00000000E+00
  0.00000000E+00  0.00000000E+00  0.00000000E+00
  0.00000000E+00  0.00000000E+00  0.00000000E+00
  0.00000000E+00  0.00000000E+00  0.00000000E+00
  0.00000000E+00  0.00000000E+00  0.00000000E+00
  0.00000000E+00  0.00000000E+00  0.00000000E+00
  0.00000000E+00  0.00000000E+00  0.00000000E+00
  0.00000000E+00  0.00000000E+00  0.00000000E+00
  0.00000000E+00  0.00000000E+00  0.00000000E+00
  0.00000000E+00  0.00000000E+00  0.00000000E+00
  0.00000000E+00  0.00000000E+00  0.00000000E+00
  0.00000000E+00  0.00000000E+00  0.00000000E+00
  0.00000000E+00  0.00000000E+00  0.00000000E+00
  0.00000000E+00  0.00000000E+00  0.00000000E+00
  0.00000000E+00  0.00000000E+00  0.00000000E+00
  0.00000000E+00  0.00000000E+00  0.00000000E+00
  0.00000000E+00  0.00000000E+00  0.00000000E+00
  0.00000000E+00  0.00000000E+00  0.00000000E+00
  0.00000000E+00  0.00000000E+00  0.00000000E+00
  0.00000000E+00  0.00000000E+00  0.00000000E+00
  0.00000000E+00  0.00000000E+00  0.00000000E+00
  0.00000000E+00  0.00000000E+00  0.00000000E+00
  0.00000000E+00  0.00000000E+00  0.00000000E+00
  0.00000000E+00  0.00000000E+00  0.00000000E+00
  0.00000000E+00  0.00000000E+00  0.00000000E+00
  0.00000000E+00  0.00000000E+00  0.00000000E+00
  0.00000000E+00  0.00000000E+00  0.00000000E+00
  0.00000000E+00  0.00000000E+00  0.00000000E+00
  0.00000000E+00  0.00000000E+00  0.00000000E+00
  0.00000000E+00  0.00000000E+00  0.00000000E+00
  0.00000000E+00  0.00000000E+00  0.00000000E+00
  0.00000000E+00  0.00000000E+00  0.00000000E+00
  0.00000000E+00  0.00000000E+00  0.00000000E+00
  0.00000000E+00  0.00000000E+00  0.00000000E+00
  0.00000000E+00  0.00000000E+00  0.00000000E+00
