SYSTEM=In #jobname
PREC=Accurate
ALGO=Fast
LREAL=Auto
LWAVE=.FALSE.
LORBIT=11
EDIFF=1e-07
EDIFFG=-0.01
ENCUT=400
GGA=PE
IBRION=2
ISIF=2
ISMEAR=1
ISPIN=2
ISTART=0
KPAR=10
LPLANE=.FALSE.
MAGMOM=1*-3.0 107*3.0
NCORE=2
NELM=120
NSIM=1
NSW=60
SIGMA=0.2
