Kpoints file generated with pyiron_atomistics
0
Gamma centered
3 3 3
0 0 0
