Poscar file generated with pyiron
1.0
10.553999999999998 0.000000000000000 0.000000000000000
0.000000000000000 10.553999999999998 0.000000000000000
0.000000000000000 0.000000000000000 10.553999999999998
In Ni
1 107
Cartesian
0.000000000000000 0.000000000000000 0.000000000000000
0.000000000000000 1.759000000000000 1.759000000000000
1.759000000000000 0.000000000000000 1.759000000000000
1.759000000000000 1.759000000000000 0.000000000000000
0.000000000000000 0.000000000000000 3.518000000000000
0.000000000000000 1.759000000000000 5.276999999999999
1.759000000000000 0.000000000000000 5.276999999999999
1.759000000000000 1.759000000000000 3.518000000000000
0.000000000000000 0.000000000000000 7.036000000000000
0.000000000000000 1.759000000000000 8.795000000000000
1.759000000000000 0.000000000000000 8.795000000000000
1.759000000000000 1.759000000000000 7.036000000000000
0.000000000000000 3.518000000000000 0.000000000000000
0.000000000000000 5.276999999999999 1.759000000000000
1.759000000000000 3.518000000000000 1.759000000000000
1.759000000000000 5.276999999999999 0.000000000000000
0.000000000000000 3.518000000000000 3.518000000000000
0.000000000000000 5.276999999999999 5.276999999999999
1.759000000000000 3.518000000000000 5.276999999999999
1.759000000000000 5.276999999999999 3.518000000000000
0.000000000000000 3.518000000000000 7.036000000000000
0.000000000000000 5.276999999999999 8.795000000000000
1.759000000000000 3.518000000000000 8.795000000000000
1.759000000000000 5.276999999999999 7.036000000000000
0.000000000000000 7.036000000000000 0.000000000000000
0.000000000000000 8.795000000000000 1.759000000000000
1.759000000000000 7.036000000000000 1.759000000000000
1.759000000000000 8.795000000000000 0.000000000000000
0.000000000000000 7.036000000000000 3.518000000000000
0.000000000000000 8.795000000000000 5.276999999999999
1.759000000000000 7.036000000000000 5.276999999999999
1.759000000000000 8.795000000000000 3.518000000000000
0.000000000000000 7.036000000000000 7.036000000000000
0.000000000000000 8.795000000000000 8.795000000000000
1.759000000000000 7.036000000000000 8.795000000000000
1.759000000000000 8.795000000000000 7.036000000000000
3.518000000000000 0.000000000000000 0.000000000000000
3.518000000000000 1.759000000000000 1.759000000000000
5.276999999999999 0.000000000000000 1.759000000000000
5.276999999999999 1.759000000000000 0.000000000000000
3.518000000000000 0.000000000000000 3.518000000000000
3.518000000000000 1.759000000000000 5.276999999999999
5.276999999999999 0.000000000000000 5.276999999999999
5.276999999999999 1.759000000000000 3.518000000000000
3.518000000000000 0.000000000000000 7.036000000000000
3.518000000000000 1.759000000000000 8.795000000000000
5.276999999999999 0.000000000000000 8.795000000000000
5.276999999999999 1.759000000000000 7.036000000000000
3.518000000000000 3.518000000000000 0.000000000000000
3.518000000000000 5.276999999999999 1.759000000000000
5.276999999999999 3.518000000000000 1.759000000000000
5.276999999999999 5.276999999999999 0.000000000000000
3.518000000000000 3.518000000000000 3.518000000000000
3.518000000000000 5.276999999999999 5.276999999999999
5.276999999999999 3.518000000000000 5.276999999999999
5.276999999999999 5.276999999999999 3.518000000000000
3.518000000000000 3.518000000000000 7.036000000000000
3.518000000000000 5.276999999999999 8.795000000000000
5.276999999999999 3.518000000000000 8.795000000000000
5.276999999999999 5.276999999999999 7.036000000000000
3.518000000000000 7.036000000000000 0.000000000000000
3.518000000000000 8.795000000000000 1.759000000000000
5.276999999999999 7.036000000000000 1.759000000000000
5.276999999999999 8.795000000000000 0.000000000000000
3.518000000000000 7.036000000000000 3.518000000000000
3.518000000000000 8.795000000000000 5.276999999999999
5.276999999999999 7.036000000000000 5.276999999999999
5.276999999999999 8.795000000000000 3.518000000000000
3.518000000000000 7.036000000000000 7.036000000000000
3.518000000000000 8.795000000000000 8.795000000000000
5.276999999999999 7.036000000000000 8.795000000000000
5.276999999999999 8.795000000000000 7.036000000000000
7.036000000000000 0.000000000000000 0.000000000000000
7.036000000000000 1.759000000000000 1.759000000000000
8.795000000000000 0.000000000000000 1.759000000000000
8.795000000000000 1.759000000000000 0.000000000000000
7.036000000000000 0.000000000000000 3.518000000000000
7.036000000000000 1.759000000000000 5.276999999999999
8.795000000000000 0.000000000000000 5.276999999999999
8.795000000000000 1.759000000000000 3.518000000000000
7.036000000000000 0.000000000000000 7.036000000000000
7.036000000000000 1.759000000000000 8.795000000000000
8.795000000000000 0.000000000000000 8.795000000000000
8.795000000000000 1.759000000000000 7.036000000000000
7.036000000000000 3.518000000000000 0.000000000000000
7.036000000000000 5.276999999999999 1.759000000000000
8.795000000000000 3.518000000000000 1.759000000000000
8.795000000000000 5.276999999999999 0.000000000000000
7.036000000000000 3.518000000000000 3.518000000000000
7.036000000000000 5.276999999999999 5.276999999999999
8.795000000000000 3.518000000000000 5.276999999999999
8.795000000000000 5.276999999999999 3.518000000000000
7.036000000000000 3.518000000000000 7.036000000000000
7.036000000000000 5.276999999999999 8.795000000000000
8.795000000000000 3.518000000000000 8.795000000000000
8.795000000000000 5.276999999999999 7.036000000000000
7.036000000000000 7.036000000000000 0.000000000000000
7.036000000000000 8.795000000000000 1.759000000000000
8.795000000000000 7.036000000000000 1.759000000000000
8.795000000000000 8.795000000000000 0.000000000000000
7.036000000000000 7.036000000000000 3.518000000000000
7.036000000000000 8.795000000000000 5.276999999999999
8.795000000000000 7.036000000000000 5.276999999999999
8.795000000000000 8.795000000000000 3.518000000000000
7.036000000000000 7.036000000000000 7.036000000000000
7.036000000000000 8.795000000000000 8.795000000000000
8.795000000000000 7.036000000000000 8.795000000000000
8.795000000000000 8.795000000000000 7.036000000000000
